CUST NO.,XCOORD.,YCOORD.,DEMAND,READY TIME,DUE DATE,SERVICE TIME
0,35,35,0,0,1000,0
1,41,49,10,707,848,10
2,35,17,7,143,282,10
3,55,45,13,527,584,10
4,55,20,19,678,801,10
5,15,30,26,34,209,10
6,25,30,3,415,514,10
7,20,50,5,331,410,10
8,10,43,9,404,481,10
9,55,60,16,400,497,10
10,30,60,16,577,632,10
11,20,65,12,206,325,10
12,50,35,-19,228,345,10
13,30,25,-23,690,827,10
14,15,10,-20,32,243,10
15,30,5,-8,175,300,10
